p cnf 91 377
1 42 45 60 83 -87 0
3 4 19 23 -50 -68 0
13 -31 58 -73 78 79 0
1 -42 45 -60 83 -87 0
4 19 23 68 -91 0
-4 52 -63 78 -84 0
7 9 40 46 -87 0
8 9 -48 55 64 0
10 11 12 -27 -28 0
11 12 26 -28 -31 0
12 13 -31 58 -73 0
-14 -15 29 57 58 0
13 57 -73 -78 79 0
1 10 69 83 0
1 -42 60 83 0
1 70 83 88 0
-1 8 -10 -70 0
-1 -10 -26 -34 0
2 3 -32 56 0
2 -56 61 65 0
-3 -16 -23 -89 0
-3 -16 -50 68 0
-3 -19 67 91 0
-3 51 67 -68 0
4 -61 -78 82 0
-4 -19 -61 84 0
6 -36 -37 63 0
7 8 9 55 0
-7 42 -60 -83 0
-8 -10 41 -70 0
-8 -46 47 -64 0
-11 -14 25 76 0
12 -27 34 57 0
13 78 -79 84 0
-13 -49 90 -91 0
-13 66 86 90 0
-13 68 90 -91 0
-17 -18 -19 -23 0
-17 -21 22 -72 0
-18 -19 -38 -64 0
-18 -39 -40 -55 0
19 23 -30 -36 0
-19 -23 25 36 0
-21 -41 70 -77 0
22 41 -53 70 0
-22 -41 -44 -72 0
23 27 32 34 0
23 -33 -75 -76 0
23 -74 -75 -80 0
-38 41 -54 71 0
-43 46 -47 64 0
-49 51 -68 -91 0
-52 -61 62 -74 0
57 58 -76 -80 0
-58 65 -76 -80 0
66 -67 86 -89 0
-1 -32 -34 -56 0
3 19 51 -91 0
3 19 -51 -91 0
-3 -19 -86 91 0
-4 52 -61 -84 0
7 42 46 -55 0
10 21 22 69 0
-11 -15 76 80 0
13 49 79 84 0
19 23 38 64 0
19 39 42 60 0
22 41 71 -72 0
23 -75 76 -80 0
-23 78 -79 -84 0
29 30 -31 -73 0
-30 57 58 -73 0
-35 -61 65 82 0
36 62 -63 78 0
-40 43 45 -87 0
68 -85 90 -91 0
1 2 59 0
1 2 -62 0
1 7 8 0
1 10 -21 0
1 -10 59 0
1 24 59 0
1 70 83 0
-1 -2 78 0
-1 -3 50 0
-1 8 -88 0
-1 -24 62 0
2 -32 33 0
-2 -5 35 0
-2 -5 61 0
-2 -5 -65 0
3 4 -67 0
3 24 -32 0
-3 4 78 0
4 9 -47 0
4 -49 -50 0
4 89 -91 0
5 -78 84 0
-5 -6 37 0
-5 -6 62 0
-5 -36 -63 0
-5 -65 82 0
7 45 55 0
8 9 64 0
-8 20 -70 0
-8 -39 -60 0
-8 -45 48 0
-8 83 88 0
10 21 22 0
10 34 -57 0
-10 -24 -59 0
12 13 49 0
-12 78 79 0
-12 -78 -79 0
13 49 67 0
13 67 91 0
13 85 91 0
-13 -49 -50 0
-13 -50 66 0
-13 89 -91 0
14 -29 73 0
17 23 38 0
17 44 -71 0
17 70 77 0
-17 -39 -44 0
-17 44 -77 0
19 21 60 0
19 28 -32 0
19 38 47 0
19 39 48 0
19 -75 -76 0
-19 -27 -34 0
-19 -32 -59 0
-19 -47 -53 0
-19 -48 54 0
-19 81 85 0
20 -38 -54 0
20 -41 53 0
20 53 -54 0
20 -69 -72 0
-20 -22 70 0
-20 69 70 0
22 -72 88 0
-22 41 -55 0
23 74 75 0
-23 30 65 0
-23 51 -85 0
-23 52 84 0
-24 -25 -35 0
-24 -25 -59 0
25 32 33 0
25 33 56 0
25 65 74 0
-26 28 31 0
-26 28 33 0
29 33 37 0
-29 30 73 0
-29 37 -73 0
30 33 36 0
-30 -31 -37 0
-32 -33 -61 0
36 74 82 0
37 -74 82 0
38 70 72 0
40 43 87 0
-42 46 69 0
45 48 55 0
-46 -47 64 0
49 85 -86 0
50 66 -86 0
50 66 89 0
-51 -68 -91 0
52 62 84 0
52 -63 82 0
53 -54 71 0
-56 -61 62 0
65 -74 -82 0
-66 86 90 0
68 -81 -85 0
-68 -81 91 0
-68 -86 90 0
-68 -86 91 0
-69 -72 88 0
-81 85 91 0
85 -86 91 0
1 2 0
1 -10 0
1 -42 0
1 56 0
1 60 0
1 -62 0
1 63 0
1 88 0
-1 -2 0
-1 -24 0
-1 -26 0
-1 32 0
-1 -36 0
-1 -88 0
2 5 0
2 -35 0
2 59 0
-2 35 0
-2 61 0
-2 -65 0
3 7 0
3 -16 0
3 27 0
3 -31 0
3 -51 0
-3 -4 0
-3 45 0
4 16 0
4 44 0
4 -49 0
4 -52 0
4 61 0
4 -61 0
4 84 0
4 -89 0
4 -91 0
-4 -78 0
-4 -82 0
5 48 0
5 -52 0
5 -62 0
5 63 0
5 78 0
5 -82 0
5 -84 0
-5 35 0
-5 -36 0
6 35 0
6 -62 0
6 -82 0
-6 -74 0
-6 75 0
-6 84 0
7 -43 0
-7 -42 0
-7 87 0
8 64 0
8 83 0
8 -88 0
-8 -9 0
-8 42 0
-8 -42 0
-8 83 0
-8 -83 0
-8 87 0
-9 -40 0
-9 43 0
-9 -46 0
-9 -55 0
10 11 0
10 12 0
10 -28 0
10 -60 0
10 -69 0
10 -70 0
10 -77 0
10 81 0
10 83 0
-10 -11 0
-10 -12 0
-10 -24 0
-10 -26 0
-10 27 0
-10 32 0
11 -12 0
11 14 0
11 15 0
11 -19 0
11 28 0
11 58 0
11 -80 0
-11 31 0
-11 -57 0
-11 -58 0
-11 -79 0
12 -19 0
12 26 0
-12 -16 0
-12 31 0
-12 -46 0
-12 -48 0
-12 -58 0
-12 73 0
13 57 0
13 85 0
13 -90 0
13 91 0
-13 86 0
-13 89 0
-13 -91 0
14 -57 0
14 -58 0
14 73 0
14 78 0
14 -79 0
-14 -19 0
-14 -31 0
-14 -68 0
-14 78 0
-14 -78 0
15 31 0
15 -57 0
15 -58 0
-15 -30 0
16 49 0
16 50 0
16 51 0
-16 -49 0
-16 -85 0
-16 91 0
17 39 0
17 71 0
17 77 0
17 -77 0
-17 41 0
-17 77 0
-17 83 0
18 21 0
18 39 0
18 41 0
18 47 0
18 54 0
18 64 0
18 69 0
-18 -41 0
-18 42 0
-18 -47 0
-18 -48 0
-18 -60 0
-18 -69 0
-18 81 0
-18 -86 0
19 21 0
19 26 0
19 32 0
19 -32 0
19 40 0
19 -51 0
19 54 0
19 56 0
19 59 0
19 69 0
19 75 0
19 81 0
-19 -40 0
-19 -41 0
-19 -51 0
-19 -60 0
-19 65 0
-19 -69 0
-19 79 0
-19 80 0
-19 81 0
-19 -85 0
-19 -88 0
-19 89 0
-19 -89 0
20 21 0
20 -38 0
20 -48 0
20 53 0
-20 21 0
-20 -21 0
-20 72 0
-20 77 0
21 -42 0
21 60 0
21 -77 0
21 88 0
-21 -53 0
-21 60 0
-21 -69 0
